benchmarks_vrp/CMT2/fixed_c/CMT2_1.vrp
NAME: CMT2_1
TYPE: CVRP
COMMENT: 835.26 - Cluster Nr.1
DIMENSION: 8
CAPACITY: 140
EDGE_WEIGHT_TYPE: EUC_2D
NODE_COORD_TYPE: TWOD_COORDS
NODE_COORD_SECTION: 
1 66 8
3 59 5
5 60 15
7 50 4
8 40 40
4 54 10
6 64 4
2 66 14
DEPOT_SECTION: 
8
-1
DEMAND_SECTION: 
5 14
4 12
6 13
1 11
3 3
8 0
2 22
7 8
EOF
