benchmarks_vrp/CMT2/fixed_c/CMT2_1.tour
NAME: CMT2_1 solution
TYPE: TOUR
TOUR_SECTION:
8 4 7 3 6 1 2 5 -1
-1
EOF